p cnf 138 684
1 -52 0
1 -53 0
52 -52 0
53 -53 0
18 -58 0
18 -59 0
58 -58 0
59 -59 0
35 -64 0
35 -65 0
64 -64 0
65 -65 0
2 -52 0
2 -53 0
52 -52 0
53 -53 0
19 -58 0
19 -59 0
58 -58 0
59 -59 0
36 -64 0
36 -65 0
64 -64 0
65 -65 0
-3 -52 0
-3 -53 0
52 -52 0
53 -53 0
-20 -58 0
-20 -59 0
58 -58 0
59 -59 0
-37 -64 0
-37 -65 0
64 -64 0
65 -65 0
4 -52 0
4 -53 0
52 -52 0
53 -53 0
21 -58 0
21 -59 0
58 -58 0
59 -59 0
38 -64 0
38 -65 0
64 -64 0
65 -65 0
5 -52 0
5 -53 0
52 -52 0
53 -53 0
22 -58 0
22 -59 0
58 -58 0
59 -59 0
39 -64 0
39 -65 0
64 -64 0
65 -65 0
6 -52 0
6 -53 0
52 -52 0
53 -53 0
23 -58 0
23 -59 0
58 -58 0
59 -59 0
40 -64 0
40 -65 0
64 -64 0
65 -65 0
7 -52 0
7 -53 0
52 -52 0
53 -53 0
24 -58 0
24 -59 0
58 -58 0
59 -59 0
41 -64 0
41 -65 0
64 -64 0
65 -65 0
8 -52 0
8 -53 0
52 -52 0
53 -53 0
25 -58 0
25 -59 0
58 -58 0
59 -59 0
42 -64 0
42 -65 0
64 -64 0
65 -65 0
9 -70 -52 0
-9 70 -52 0
9 70 -53 0
-9 -70 -53 0
26 -70 -58 0
-26 70 -58 0
26 70 -59 0
-26 -70 -59 0
43 -70 -64 0
-43 70 -64 0
43 70 -65 0
-43 -70 -65 0
-10 -52 0
-10 -53 0
52 -52 0
53 -53 0
-27 -58 0
-27 -59 0
58 -58 0
59 -59 0
-44 -64 0
-44 -65 0
64 -64 0
65 -65 0
11 -71 -52 0
-11 71 -52 0
11 71 -53 0
-11 -71 -53 0
28 -71 -58 0
-28 71 -58 0
28 71 -59 0
-28 -71 -59 0
45 -71 -64 0
-45 71 -64 0
45 71 -65 0
-45 -71 -65 0
12 -72 -52 0
-12 72 -52 0
12 72 -53 0
-12 -72 -53 0
29 -72 -58 0
-29 72 -58 0
29 72 -59 0
-29 -72 -59 0
46 -72 -64 0
-46 72 -64 0
46 72 -65 0
-46 -72 -65 0
13 -52 0
13 -53 0
52 -52 0
53 -53 0
30 -58 0
30 -59 0
58 -58 0
59 -59 0
47 -64 0
47 -65 0
64 -64 0
65 -65 0
14 -73 -52 0
-14 73 -52 0
14 73 -53 0
-14 -73 -53 0
31 -73 -58 0
-31 73 -58 0
31 73 -59 0
-31 -73 -59 0
48 -73 -64 0
-48 73 -64 0
48 73 -65 0
-48 -73 -65 0
15 -74 -52 0
-15 74 -52 0
15 74 -53 0
-15 -74 -53 0
32 -74 -58 0
-32 74 -58 0
32 74 -59 0
-32 -74 -59 0
49 -74 -64 0
-49 74 -64 0
49 74 -65 0
-49 -74 -65 0
16 -75 -52 0
-16 75 -52 0
16 75 -53 0
-16 -75 -53 0
33 -75 -58 0
-33 75 -58 0
33 75 -59 0
-33 -75 -59 0
50 -75 -64 0
-50 75 -64 0
50 75 -65 0
-50 -75 -65 0
17 -52 0
17 -53 0
52 -52 0
53 -53 0
34 -58 0
34 -59 0
58 -58 0
59 -59 0
51 -64 0
51 -65 0
64 -64 0
65 -65 0
-121 52 0
121 -52 0
-122 53 0
121 -53 0
-121 -52 0
-122 -53 0
-127 52 121 0
127 -52 0
127 -121 0
-128 53 122 0
128 -53 0
128 -122 0
-127 -58 0
-128 -59 0
-133 58 127 0
133 -58 0
133 -127 0
-134 59 128 0
134 -59 0
134 -128 0
-133 -64 0
-134 -65 0
133 0
134 0
1 -54 0
1 -55 0
54 -54 0
55 -55 0
18 -60 0
18 -61 0
60 -60 0
61 -61 0
35 -66 0
35 -67 0
66 -66 0
67 -67 0
2 -54 0
2 -55 0
54 -54 0
55 -55 0
19 -60 0
19 -61 0
60 -60 0
61 -61 0
36 -66 0
36 -67 0
66 -66 0
67 -67 0
3 -54 0
3 -55 0
54 -54 0
55 -55 0
20 -60 0
20 -61 0
60 -60 0
61 -61 0
37 -66 0
37 -67 0
66 -66 0
67 -67 0
4 -54 0
4 -55 0
54 -54 0
55 -55 0
21 -60 0
21 -61 0
60 -60 0
61 -61 0
38 -66 0
38 -67 0
66 -66 0
67 -67 0
5 -76 -54 0
-5 76 -54 0
5 76 -55 0
-5 -76 -55 0
22 -76 -60 0
-22 76 -60 0
22 76 -61 0
-22 -76 -61 0
39 -76 -66 0
-39 76 -66 0
39 76 -67 0
-39 -76 -67 0
6 -54 0
6 -55 0
54 -54 0
55 -55 0
23 -60 0
23 -61 0
60 -60 0
61 -61 0
40 -66 0
40 -67 0
66 -66 0
67 -67 0
7 -77 -54 0
-7 77 -54 0
7 77 -55 0
-7 -77 -55 0
24 -77 -60 0
-24 77 -60 0
24 77 -61 0
-24 -77 -61 0
41 -77 -66 0
-41 77 -66 0
41 77 -67 0
-41 -77 -67 0
8 -78 -54 0
-8 78 -54 0
8 78 -55 0
-8 -78 -55 0
25 -78 -60 0
-25 78 -60 0
25 78 -61 0
-25 -78 -61 0
42 -78 -66 0
-42 78 -66 0
42 78 -67 0
-42 -78 -67 0
9 -79 -54 0
-9 79 -54 0
9 79 -55 0
-9 -79 -55 0
26 -79 -60 0
-26 79 -60 0
26 79 -61 0
-26 -79 -61 0
43 -79 -66 0
-43 79 -66 0
43 79 -67 0
-43 -79 -67 0
10 -80 -54 0
-10 80 -54 0
10 80 -55 0
-10 -80 -55 0
27 -80 -60 0
-27 80 -60 0
27 80 -61 0
-27 -80 -61 0
44 -80 -66 0
-44 80 -66 0
44 80 -67 0
-44 -80 -67 0
-11 -54 0
-11 -55 0
54 -54 0
55 -55 0
-28 -60 0
-28 -61 0
60 -60 0
61 -61 0
-45 -66 0
-45 -67 0
66 -66 0
67 -67 0
12 -81 -54 0
-12 81 -54 0
12 81 -55 0
-12 -81 -55 0
29 -81 -60 0
-29 81 -60 0
29 81 -61 0
-29 -81 -61 0
46 -81 -66 0
-46 81 -66 0
46 81 -67 0
-46 -81 -67 0
13 -54 0
13 -55 0
54 -54 0
55 -55 0
30 -60 0
30 -61 0
60 -60 0
61 -61 0
47 -66 0
47 -67 0
66 -66 0
67 -67 0
14 -82 -54 0
-14 82 -54 0
14 82 -55 0
-14 -82 -55 0
31 -82 -60 0
-31 82 -60 0
31 82 -61 0
-31 -82 -61 0
48 -82 -66 0
-48 82 -66 0
48 82 -67 0
-48 -82 -67 0
15 -54 0
15 -55 0
54 -54 0
55 -55 0
32 -60 0
32 -61 0
60 -60 0
61 -61 0
49 -66 0
49 -67 0
66 -66 0
67 -67 0
16 -54 0
16 -55 0
54 -54 0
55 -55 0
33 -60 0
33 -61 0
60 -60 0
61 -61 0
50 -66 0
50 -67 0
66 -66 0
67 -67 0
17 -54 0
17 -55 0
54 -54 0
55 -55 0
34 -60 0
34 -61 0
60 -60 0
61 -61 0
51 -66 0
51 -67 0
66 -66 0
67 -67 0
-123 54 0
123 -54 0
-124 55 0
123 -55 0
-123 -54 0
-124 -55 0
-129 54 123 0
129 -54 0
129 -123 0
-130 55 124 0
130 -55 0
130 -124 0
-129 -60 0
-130 -61 0
-135 60 129 0
135 -60 0
135 -129 0
-136 61 130 0
136 -61 0
136 -130 0
-135 -66 0
-136 -67 0
135 0
136 0
1 -83 -56 0
-1 83 -56 0
1 83 -57 0
-1 -83 -57 0
18 -83 -62 0
-18 83 -62 0
18 83 -63 0
-18 -83 -63 0
35 -83 -68 0
-35 83 -68 0
35 83 -69 0
-35 -83 -69 0
2 -56 0
2 -57 0
56 -56 0
57 -57 0
19 -62 0
19 -63 0
62 -62 0
63 -63 0
36 -68 0
36 -69 0
68 -68 0
69 -69 0
3 -84 -56 0
-3 84 -56 0
3 84 -57 0
-3 -84 -57 0
20 -84 -62 0
-20 84 -62 0
20 84 -63 0
-20 -84 -63 0
37 -84 -68 0
-37 84 -68 0
37 84 -69 0
-37 -84 -69 0
4 -85 -56 0
-4 85 -56 0
4 85 -57 0
-4 -85 -57 0
21 -85 -62 0
-21 85 -62 0
21 85 -63 0
-21 -85 -63 0
38 -85 -68 0
-38 85 -68 0
38 85 -69 0
-38 -85 -69 0
5 -56 0
5 -57 0
56 -56 0
57 -57 0
22 -62 0
22 -63 0
62 -62 0
63 -63 0
39 -68 0
39 -69 0
68 -68 0
69 -69 0
6 -56 0
6 -57 0
56 -56 0
57 -57 0
23 -62 0
23 -63 0
62 -62 0
63 -63 0
40 -68 0
40 -69 0
68 -68 0
69 -69 0
7 -56 0
7 -57 0
56 -56 0
57 -57 0
24 -62 0
24 -63 0
62 -62 0
63 -63 0
41 -68 0
41 -69 0
68 -68 0
69 -69 0
8 -56 0
8 -57 0
56 -56 0
57 -57 0
25 -62 0
25 -63 0
62 -62 0
63 -63 0
42 -68 0
42 -69 0
68 -68 0
69 -69 0
9 -56 0
9 -57 0
56 -56 0
57 -57 0
26 -62 0
26 -63 0
62 -62 0
63 -63 0
43 -68 0
43 -69 0
68 -68 0
69 -69 0
-10 -56 0
-10 -57 0
56 -56 0
57 -57 0
-27 -62 0
-27 -63 0
62 -62 0
63 -63 0
-44 -68 0
-44 -69 0
68 -68 0
69 -69 0
11 -56 0
11 -57 0
56 -56 0
57 -57 0
28 -62 0
28 -63 0
62 -62 0
63 -63 0
45 -68 0
45 -69 0
68 -68 0
69 -69 0
12 -56 0
12 -57 0
56 -56 0
57 -57 0
29 -62 0
29 -63 0
62 -62 0
63 -63 0
46 -68 0
46 -69 0
68 -68 0
69 -69 0
13 -56 0
13 -57 0
56 -56 0
57 -57 0
30 -62 0
30 -63 0
62 -62 0
63 -63 0
47 -68 0
47 -69 0
68 -68 0
69 -69 0
-14 -56 0
-14 -57 0
56 -56 0
57 -57 0
-31 -62 0
-31 -63 0
62 -62 0
63 -63 0
-48 -68 0
-48 -69 0
68 -68 0
69 -69 0
-15 -56 0
-15 -57 0
56 -56 0
57 -57 0
-32 -62 0
-32 -63 0
62 -62 0
63 -63 0
-49 -68 0
-49 -69 0
68 -68 0
69 -69 0
-16 -56 0
-16 -57 0
56 -56 0
57 -57 0
-33 -62 0
-33 -63 0
62 -62 0
63 -63 0
-50 -68 0
-50 -69 0
68 -68 0
69 -69 0
17 -56 0
17 -57 0
56 -56 0
57 -57 0
34 -62 0
34 -63 0
62 -62 0
63 -63 0
51 -68 0
51 -69 0
68 -68 0
69 -69 0
-125 56 0
125 -56 0
-126 57 0
125 -57 0
-125 -56 0
-126 -57 0
-131 56 125 0
131 -56 0
131 -125 0
-132 57 126 0
132 -57 0
132 -126 0
-131 -62 0
-132 -63 0
-137 62 131 0
137 -62 0
137 -131 0
-138 63 132 0
138 -63 0
138 -132 0
-137 -68 0
-138 -69 0
137 0
138 0
